85
120
96	10
95	10
94	14
93	9
92	12
91	11
90	18
89	13
88	16
87	8
86	17
85	8
84	14
83	14
82	8
81	14
80	7
79	15
78	17
77	9
76	11
75	11
74	10
73	8
72	10
71	13
70	11
69	7
68	8
67	9
66	15
65	17
64	10
63	12
62	10
61	18
60	10
59	14
58	6
57	15
56	11
55	16
54	14
53	10
52	10
51	9
50	14
49	9
48	11
47	16
46	13
45	9
44	9
43	12
42	10
41	9
40	12
39	14
38	12
37	8
36	11
35	9
34	14
33	12
32	18
31	11
30	12
29	9
28	19
27	13
26	14
25	9
24	10
23	14
22	11
21	8
20	10
19	9
18	13
17	12
16	19
15	9
14	15
13	13
12	9
